0000000000000000
0000000000000000
0000111111000000
0001111001100000
0011000000110000
0011000000010000
0000000000010000
0000000000010000
0000011110110000
0000011111100000
0000001111000000
0000000001100000
0000000001100000
0000000001100000
0000000001000000
0000000000000000
